language Essence 1.3

letting n_models be 2
letting max_power be function
(
  1 --> 90,
  2 --> 110
)

letting max_connects be function
(
  1 --> 3,
  2 --> 3
)

letting price be function
(
  1 --> 90,
  1 --> 110
)

letting n_types be 4

letting req_power be function
(
  1 --> 20,
  2 --> 45,
  3 --> 50,
  4 --> 65
)


letting n_cards be 4
letting ctype be function
(
  1 --> 1,
  2 --> 2,
  3 --> 3,
  4 --> 4
)

letting n_racks be 5